NAME: tsp50_25
COMMENT: 50-tsp problem (Padberg/Rinaldi)
TYPE: TSP
DIMENSION: 50
EDGE_WEIGHT_TYPE : EUC_2D
NODE_COORD_SECTION
1 16 4
2 33 25
3 29 6
4 24 29
5 38 6
6 26 10
7 25 19
8 39 20
9 29 22
10 11 38
11 19 21
12 20 19
13 13 11
14 5 21
15 3 19
16 13 16
17 11 15
18 11 37
19 29 38
20 29 6
21 13 9
22 39 36
23 12 14
24 12 15
25 9 7
26 9 26
27 22 2
28 10 9
29 11 28
30 40 37
31 21 36
32 5 40
33 15 25
34 3 27
35 29 29
36 26 21
37 27 15
38 38 39
39 13 35
40 38 37
41 13 29
42 22 19
43 17 11
44 38 26
45 1 38
46 34 1
47 0 24
48 16 11
49 3 15
50 17 17
